314 106
330 40
63 213
120 16
40 468
330 314
272 345
267 165
126 12
83 56
372 149
427 90
299 252
132 440
403 242
416 144
437 112
404 43
218 487
78 228
63 489
141 389
117 376
420 488
348 243
250 288
261 185
231 75
308 106
435 173
15 327
353 11
372 258
136 127
375 75
258 11
434 291
266 327
28 91
333 187
94 423
187 183
51 39
328 53
126 331
24 191
472 133
293 230
2 128
277 326
